<number of tasks>
32

<cycle time>
1572

<task times>
1 458
2 276
3 520
4 1400
5 352
6 196
7 214
8 456
9 646
10 512
11 408
12 262
13 544
14 202
15 458
16 694
17 616
18 678
19 328
20 324
21 100
22 352
23 544
24 500
25 382
26 858
27 388
28 352
29 428
30 238
31 258
32 196

<precedence relations>
1,5
2,6
3,9
4,15
5,6
6,7
6,8
6,9
7,21
8,21
9,10
9,11
10,16
11,12
12,13
13,14
13,15
14,16
14,17
15,17
16,18
17,19
18,21
19,20
20,21
21,22
21,23
21,24
22,25
23,32
24,32
25,26
26,27
27,28
28,29
29,30
30,31
31,32

<setup times forward>
1,2:70
1,3:27
1,4:24
1,5:16
2,1:70
2,3:97
2,4:46
2,5:54
2,6:109
3,1:27
3,2:97
3,4:51
3,5:43
3,6:12
3,7:24
3,8:34
3,9:64
4,1:24
4,2:46
4,3:51
4,5:8
4,6:63
4,7:27
4,8:85
4,9:13
4,10:50
4,11:102
4,12:34
4,13:6
4,14:25
4,15:114
4,16:105
4,18:42
5,2:54
5,3:43
5,4:8
5,6:55
6,3:12
6,4:63
6,7:36
6,8:22
6,9:76
7,3:24
7,4:27
7,8:58
7,9:40
7,10:23
7,11:75
7,12:7
7,13:21
7,14:52
7,15:87
7,16:78
7,17:67
7,18:15
7,19:18
7,20:51
7,21:47
8,3:34
8,4:85
8,7:58
8,9:98
8,10:35
8,11:17
8,12:51
8,13:79
8,14:110
8,15:29
8,16:20
8,17:125
8,18:43
8,19:76
8,20:109
8,21:105
9,4:13
9,7:40
9,8:98
9,10:63
9,11:115
10,4:50
10,7:23
10,8:35
10,11:52
10,12:16
10,13:44
10,14:75
10,15:64
10,16:55
10,17:90
10,19:41
10,20:74
11,4:102
11,7:75
11,8:17
11,10:52
11,12:68
12,4:34
12,7:7
12,8:51
12,10:16
12,13:28
13,4:6
13,7:21
13,8:79
13,10:44
13,14:31
13,15:108
14,4:25
14,7:52
14,8:110
14,10:75
14,15:139
14,16:130
14,17:15
15,7:87
15,8:29
15,10:64
15,14:139
15,16:9
15,17:154
15,18:72
16,4:105
16,7:78
16,8:20
16,15:9
16,17:145
16,18:63
16,19:96
16,20:129
17,7:67
17,8:125
17,10:90
17,16:145
17,18:82
17,19:49
18,4:42
18,7:15
18,8:43
18,15:72
18,17:82
18,19:33
18,20:66
18,21:62
19,7:18
19,8:76
19,10:41
19,16:96
19,18:33
19,20:33
20,7:51
20,8:109
20,10:74
20,16:129
20,18:66
20,21:4
21,22:104
21,23:4
21,24:62
22,23:100
22,24:42
22,25:29
23,22:100
23,24:58
23,25:71
23,26:108
23,27:140
23,28:25
23,29:122
23,30:45
23,31:7
23,32:21
24,22:42
24,23:58
24,25:13
24,26:50
24,27:82
24,28:33
24,29:64
24,30:13
24,31:65
24,32:79
25,23:71
25,24:13
25,26:37
26,23:108
26,24:50
26,27:32
27,23:140
27,24:82
27,28:115
28,23:25
28,24:33
28,29:97
29,23:122
29,24:64
29,30:77
30,23:45
30,24:13
30,31:52
31,23:7
31,24:65
31,32:14

<setup times backward>
1,1:171
1,2:101
1,3:198
1,4:147
2,1:241
2,2:171
2,3:268
2,4:217
2,5:225
3,1:144
3,2:74
3,3:171
3,4:120
3,5:128
3,6:183
3,7:147
3,8:205
4,1:195
4,2:125
4,3:222
4,4:171
4,5:179
4,6:234
4,7:198
4,8:256
4,9:158
4,10:221
4,11:273
4,12:205
4,13:177
4,14:146
4,16:276
4,18:213
5,1:187
5,2:117
5,3:214
5,4:163
5,5:171
6,1:132
6,2:62
6,3:159
6,4:108
6,5:116
6,6:171
7,1:168
7,2:98
7,3:195
7,4:144
7,5:152
7,6:207
7,7:171
7,8:229
7,9:131
7,10:194
7,11:246
7,12:178
7,13:150
7,14:119
7,15:258
7,16:249
7,17:104
7,18:186
7,19:153
7,20:120
8,1:110
8,2:40
8,3:137
8,4:86
8,5:94
8,6:149
8,7:113
8,8:171
8,9:73
8,10:136
8,11:188
8,12:120
8,13:92
8,14:61
8,15:200
8,16:191
8,17:46
8,18:128
8,19:95
8,20:62
9,1:208
9,2:138
9,3:235
9,4:184
9,5:192
9,6:247
9,7:211
9,8:269
9,9:171
10,1:145
10,2:75
10,3:172
10,4:121
10,5:129
10,6:184
10,7:148
10,8:206
10,9:108
10,10:171
10,11:223
10,12:155
10,13:127
10,14:96
10,15:235
10,17:81
10,19:130
10,20:97
11,1:93
11,2:23
11,3:120
11,4:69
11,5:77
11,6:132
11,7:96
11,8:154
11,9:56
11,10:119
11,11:171
12,1:161
12,2:91
12,3:188
12,4:137
12,5:145
12,6:200
12,7:164
12,8:222
12,9:124
12,10:187
12,11:239
12,12:171
13,1:189
13,2:119
13,3:216
13,4:165
13,5:173
13,6:228
13,7:192
13,8:250
13,9:152
13,10:215
13,11:267
13,12:199
13,13:171
14,1:220
14,2:150
14,3:247
14,4:196
14,5:204
14,6:259
14,7:223
14,8:281
14,9:183
14,10:246
14,11:298
14,12:230
14,13:202
14,14:171
14,15:310
15,1:81
15,2:11
15,3:108
15,4:57
15,5:65
15,6:120
15,7:84
15,8:142
15,9:44
15,10:107
15,11:159
15,12:91
15,13:63
15,14:32
15,15:171
15,16:162
15,18:99
16,1:90
16,2:20
16,3:117
16,4:66
16,5:74
16,6:129
16,7:93
16,8:151
16,9:53
16,10:116
16,11:168
16,12:100
16,13:72
16,14:41
16,15:180
16,16:171
16,17:26
16,19:75
16,20:42
17,1:235
17,2:165
17,3:262
17,4:211
17,5:219
17,6:274
17,7:238
17,8:296
17,9:198
17,10:261
17,11:313
17,12:245
17,13:217
17,14:186
17,15:325
17,16:316
17,17:171
17,18:253
18,1:153
18,2:83
18,3:180
18,4:129
18,5:137
18,6:192
18,7:156
18,8:214
18,9:116
18,10:179
18,11:231
18,12:163
18,13:135
18,14:104
18,15:243
18,16:234
18,17:89
18,18:171
18,19:138
18,20:105
19,1:186
19,2:116
19,3:213
19,4:162
19,5:170
19,6:225
19,7:189
19,8:247
19,9:149
19,10:212
19,11:264
19,12:196
19,13:168
19,14:137
19,15:276
19,16:267
19,17:122
19,18:204
19,19:171
20,1:219
20,2:149
20,3:246
20,4:195
20,5:203
20,6:258
20,7:222
20,8:280
20,9:182
20,10:245
20,11:297
20,12:229
20,13:201
20,14:170
20,15:309
20,16:300
20,17:155
20,18:237
20,19:204
20,20:171
21,1:215
21,2:145
21,3:242
21,4:191
21,5:199
21,6:254
21,7:218
21,8:276
21,9:178
21,10:241
21,11:293
21,12:225
21,13:197
21,14:166
21,15:305
21,16:296
21,17:151
21,18:233
21,19:200
21,20:167
21,21:171
22,1:111
22,2:41
22,3:138
22,4:87
22,5:95
22,6:150
22,7:114
22,8:172
22,9:74
22,10:137
22,11:189
22,12:121
22,13:93
22,14:62
22,15:201
22,16:192
22,17:47
22,18:129
22,19:96
22,20:63
22,21:67
22,22:171
22,23:71
22,24:129
23,1:211
23,2:141
23,3:238
23,4:187
23,5:195
23,6:250
23,7:214
23,8:272
23,9:174
23,10:237
23,11:289
23,12:221
23,13:193
23,14:162
23,15:301
23,16:292
23,17:147
23,18:229
23,19:196
23,20:163
23,21:167
23,22:271
23,23:171
23,24:229
23,25:242
23,26:279
23,27:311
23,28:196
23,29:293
23,30:216
23,31:164
24,1:153
24,2:83
24,3:180
24,4:129
24,5:137
24,6:192
24,7:156
24,8:214
24,9:116
24,10:179
24,11:231
24,12:163
24,13:135
24,14:104
24,15:243
24,16:234
24,17:89
24,18:171
24,19:138
24,20:105
24,21:109
24,22:213
24,23:113
24,24:171
24,25:184
24,26:221
24,27:253
24,28:138
24,29:235
24,30:158
24,31:106
25,1:140
25,2:70
25,3:167
25,4:116
25,5:124
25,6:179
25,7:143
25,8:201
25,9:103
25,10:166
25,11:218
25,12:150
25,13:122
25,14:91
25,15:230
25,16:221
25,17:76
25,18:158
25,19:125
25,20:92
25,21:96
25,22:200
25,23:100
25,24:158
25,25:171
26,1:103
26,2:33
26,3:130
26,4:79
26,5:87
26,6:142
26,7:106
26,8:164
26,9:66
26,10:129
26,11:181
26,12:113
26,13:85
26,14:54
26,15:193
26,16:184
26,17:39
26,18:121
26,19:88
26,20:55
26,21:59
26,22:163
26,23:63
26,24:121
26,25:134
26,26:171
27,1:71
27,2:1
27,3:98
27,4:47
27,5:55
27,6:110
27,7:74
27,8:132
27,9:34
27,10:97
27,11:149
27,12:81
27,13:53
27,14:22
27,15:161
27,16:152
27,17:7
27,18:89
27,19:56
27,20:23
27,21:27
27,22:131
27,23:31
27,24:89
27,25:102
27,26:139
27,27:171
28,1:186
28,2:116
28,3:213
28,4:162
28,5:170
28,6:225
28,7:189
28,8:247
28,9:149
28,10:212
28,11:264
28,12:196
28,13:168
28,14:137
28,15:276
28,16:267
28,17:122
28,18:204
28,19:171
28,20:138
28,21:142
28,22:246
28,23:146
28,24:204
28,25:217
28,26:254
28,27:286
28,28:171
29,1:89
29,2:19
29,3:116
29,4:65
29,5:73
29,6:128
29,7:92
29,8:150
29,9:52
29,10:115
29,11:167
29,12:99
29,13:71
29,14:40
29,15:179
29,16:170
29,17:25
29,18:107
29,19:74
29,20:41
29,21:45
29,22:149
29,23:49
29,24:107
29,25:120
29,26:157
29,27:189
29,28:74
29,29:171
30,1:166
30,2:96
30,3:193
30,4:142
30,5:150
30,6:205
30,7:169
30,8:227
30,9:129
30,10:192
30,11:244
30,12:176
30,13:148
30,14:117
30,15:256
30,16:247
30,17:102
30,18:184
30,19:151
30,20:118
30,21:122
30,22:226
30,23:126
30,24:184
30,25:197
30,26:234
30,27:266
30,28:151
30,29:248
30,30:171
31,1:218
31,2:148
31,3:245
31,4:194
31,5:202
31,6:257
31,7:221
31,8:279
31,9:181
31,10:244
31,11:296
31,12:228
31,13:200
31,14:169
31,15:308
31,16:299
31,17:154
31,18:236
31,19:203
31,20:170
31,21:174
31,22:278
31,23:178
31,24:236
31,25:249
31,26:286
31,27:318
31,28:203
31,29:300
31,30:223
31,31:171
32,1:232
32,2:162
32,3:259
32,4:208
32,5:216
32,6:271
32,7:235
32,8:293
32,9:195
32,10:258
32,11:310
32,12:242
32,13:214
32,14:183
32,15:322
32,16:313
32,17:168
32,18:250
32,19:217
32,20:184
32,21:188
32,22:292
32,23:192
32,24:250
32,25:263
32,26:300
32,27:332
32,28:217
32,29:314
32,30:237
32,31:185
32,32:171

<end>

<optimal SALBP-1 value>
10


<rand seed>
467321153

